784 1568
1 2 2
1 29 3
2 3 4
2 30 1
3 4 1
3 31 4
4 5 5
4 32 4
5 6 4
5 33 5
6 7 4
6 34 4
7 8 5
7 35 2
8 9 3
8 36 2
9 10 4
9 37 1
10 11 1
10 38 4
11 12 2
11 39 4
12 13 3
12 40 2
13 14 4
13 41 1
14 15 1
14 42 5
15 16 1
15 43 5
16 17 3
16 44 5
17 18 3
17 45 4
18 19 4
18 46 1
19 20 4
19 47 2
20 21 1
20 48 4
21 22 2
21 49 2
22 23 1
22 50 4
23 24 2
23 51 2
24 25 3
24 52 4
25 26 2
25 53 2
26 27 1
26 54 3
27 28 2
27 55 4
28 56 5
29 30 5
29 57 3
30 31 1
30 58 2
31 32 2
31 59 4
32 33 2
32 60 4
33 34 2
33 61 5
34 35 1
34 62 1
35 36 1
35 63 5
36 37 3
36 64 2
37 38 1
37 65 2
38 39 2
38 66 3
39 40 3
39 67 4
40 41 5
40 68 3
41 42 1
41 69 4
42 43 4
42 70 2
43 44 4
43 71 5
44 45 2
44 72 5
45 46 2
45 73 1
46 47 4
46 74 3
47 48 2
47 75 5
48 49 4
48 76 5
49 50 1
49 77 3
50 51 3
50 78 3
51 52 3
51 79 1
52 53 3
52 80 4
53 54 3
53 81 5
54 55 3
54 82 2
55 56 5
55 83 5
56 84 1
57 58 5
57 85 1
58 59 2
58 86 2
59 60 4
59 87 3
60 61 3
60 88 5
61 62 1
61 89 3
62 63 1
62 90 4
63 64 4
63 91 5
64 65 1
64 92 1
65 66 1
65 93 3
66 67 5
66 94 5
67 68 3
67 95 4
68 69 5
68 96 4
69 70 1
69 97 4
70 71 4
70 98 4
71 72 1
71 99 1
72 73 3
72 100 3
73 74 4
73 101 1
74 75 2
74 102 4
75 76 2
75 103 3
76 77 4
76 104 2
77 78 3
77 105 2
78 79 5
78 106 2
79 80 4
79 107 5
80 81 2
80 108 2
81 82 3
81 109 4
82 83 5
82 110 2
83 84 1
83 111 3
84 112 3
85 86 3
85 113 5
86 87 2
86 114 2
87 88 3
87 115 3
88 89 4
88 116 5
89 90 2
89 117 5
90 91 4
90 118 4
91 92 4
91 119 1
92 93 5
92 120 1
93 94 1
93 121 2
94 95 3
94 122 5
95 96 2
95 123 2
96 97 1
96 124 3
97 98 1
97 125 5
98 99 5
98 126 5
99 100 2
99 127 4
100 101 2
100 128 3
101 102 2
101 129 2
102 103 2
102 130 5
103 104 5
103 131 2
104 105 5
104 132 2
105 106 1
105 133 1
106 107 1
106 134 1
107 108 4
107 135 4
108 109 3
108 136 5
109 110 2
109 137 5
110 111 2
110 138 3
111 112 1
111 139 1
112 140 2
113 114 5
113 141 5
114 115 2
114 142 1
115 116 4
115 143 4
116 117 1
116 144 1
117 118 4
117 145 1
118 119 1
118 146 5
119 120 2
119 147 3
120 121 4
120 148 4
121 122 3
121 149 3
122 123 1
122 150 4
123 124 2
123 151 2
124 125 5
124 152 2
125 126 1
125 153 2
126 127 1
126 154 1
127 128 4
127 155 1
128 129 4
128 156 5
129 130 4
129 157 2
130 131 1
130 158 3
131 132 1
131 159 2
132 133 2
132 160 3
133 134 3
133 161 2
134 135 2
134 162 4
135 136 3
135 163 5
136 137 1
136 164 2
137 138 1
137 165 5
138 139 5
138 166 5
139 140 2
139 167 2
140 168 3
141 142 4
141 169 2
142 143 5
142 170 2
143 144 2
143 171 2
144 145 5
144 172 1
145 146 3
145 173 4
146 147 5
146 174 4
147 148 2
147 175 3
148 149 4
148 176 2
149 150 5
149 177 2
150 151 1
150 178 3
151 152 1
151 179 4
152 153 5
152 180 3
153 154 1
153 181 1
154 155 2
154 182 4
155 156 5
155 183 1
156 157 5
156 184 4
157 158 3
157 185 2
158 159 4
158 186 1
159 160 1
159 187 4
160 161 3
160 188 3
161 162 3
161 189 3
162 163 4
162 190 3
163 164 3
163 191 2
164 165 5
164 192 3
165 166 5
165 193 4
166 167 3
166 194 3
167 168 2
167 195 1
168 196 3
169 170 4
169 197 4
170 171 4
170 198 4
171 172 2
171 199 4
172 173 5
172 200 3
173 174 5
173 201 2
174 175 1
174 202 1
175 176 5
175 203 1
176 177 4
176 204 4
177 178 4
177 205 3
178 179 3
178 206 2
179 180 4
179 207 1
180 181 2
180 208 5
181 182 2
181 209 4
182 183 4
182 210 1
183 184 1
183 211 2
184 185 5
184 212 1
185 186 1
185 213 2
186 187 1
186 214 1
187 188 1
187 215 4
188 189 4
188 216 3
189 190 5
189 217 2
190 191 3
190 218 1
191 192 5
191 219 3
192 193 3
192 220 3
193 194 3
193 221 4
194 195 2
194 222 2
195 196 2
195 223 2
196 224 4
197 198 5
197 225 5
198 199 1
198 226 4
199 200 2
199 227 4
200 201 5
200 228 2
201 202 2
201 229 4
202 203 4
202 230 2
203 204 1
203 231 5
204 205 5
204 232 1
205 206 1
205 233 3
206 207 3
206 234 2
207 208 3
207 235 4
208 209 2
208 236 1
209 210 2
209 237 3
210 211 4
210 238 4
211 212 2
211 239 1
212 213 5
212 240 5
213 214 2
213 241 5
214 215 1
214 242 2
215 216 2
215 243 4
216 217 5
216 244 1
217 218 1
217 245 1
218 219 1
218 246 5
219 220 2
219 247 3
220 221 2
220 248 1
221 222 4
221 249 2
222 223 1
222 250 2
223 224 2
223 251 1
224 252 4
225 226 5
225 253 3
226 227 5
226 254 1
227 228 2
227 255 4
228 229 3
228 256 2
229 230 2
229 257 3
230 231 3
230 258 3
231 232 4
231 259 5
232 233 4
232 260 4
233 234 4
233 261 5
234 235 3
234 262 5
235 236 4
235 263 4
236 237 3
236 264 5
237 238 1
237 265 2
238 239 4
238 266 1
239 240 4
239 267 4
240 241 1
240 268 3
241 242 4
241 269 1
242 243 1
242 270 2
243 244 2
243 271 3
244 245 4
244 272 4
245 246 4
245 273 2
246 247 3
246 274 3
247 248 3
247 275 2
248 249 1
248 276 5
249 250 4
249 277 4
250 251 1
250 278 3
251 252 4
251 279 5
252 280 1
253 254 3
253 281 2
254 255 2
254 282 4
255 256 5
255 283 1
256 257 4
256 284 2
257 258 5
257 285 1
258 259 1
258 286 4
259 260 4
259 287 1
260 261 3
260 288 5
261 262 5
261 289 4
262 263 5
262 290 5
263 264 4
263 291 3
264 265 4
264 292 2
265 266 4
265 293 5
266 267 5
266 294 5
267 268 1
267 295 3
268 269 5
268 296 2
269 270 5
269 297 1
270 271 1
270 298 1
271 272 4
271 299 1
272 273 1
272 300 4
273 274 1
273 301 4
274 275 1
274 302 2
275 276 5
275 303 1
276 277 1
276 304 1
277 278 3
277 305 3
278 279 5
278 306 5
279 280 4
279 307 3
280 308 2
281 282 4
281 309 3
282 283 4
282 310 5
283 284 1
283 311 5
284 285 4
284 312 2
285 286 3
285 313 3
286 287 4
286 314 4
287 288 4
287 315 3
288 289 4
288 316 3
289 290 1
289 317 1
290 291 2
290 318 2
291 292 5
291 319 3
292 293 3
292 320 3
293 294 4
293 321 3
294 295 4
294 322 4
295 296 3
295 323 4
296 297 1
296 324 2
297 298 5
297 325 5
298 299 2
298 326 2
299 300 2
299 327 5
300 301 5
300 328 1
301 302 5
301 329 2
302 303 5
302 330 3
303 304 1
303 331 1
304 305 1
304 332 5
305 306 5
305 333 4
306 307 4
306 334 4
307 308 2
307 335 1
308 336 5
309 310 3
309 337 3
310 311 4
310 338 5
311 312 4
311 339 2
312 313 1
312 340 5
313 314 1
313 341 1
314 315 2
314 342 5
315 316 4
315 343 3
316 317 3
316 344 2
317 318 3
317 345 3
318 319 1
318 346 5
319 320 2
319 347 5
320 321 4
320 348 2
321 322 3
321 349 5
322 323 4
322 350 4
323 324 5
323 351 5
324 325 4
324 352 4
325 326 1
325 353 2
326 327 4
326 354 3
327 328 5
327 355 3
328 329 2
328 356 5
329 330 4
329 357 1
330 331 5
330 358 1
331 332 4
331 359 4
332 333 1
332 360 3
333 334 2
333 361 3
334 335 1
334 362 2
335 336 2
335 363 2
336 364 4
337 338 3
337 365 3
338 339 3
338 366 2
339 340 5
339 367 2
340 341 5
340 368 1
341 342 4
341 369 3
342 343 2
342 370 1
343 344 3
343 371 4
344 345 3
344 372 4
345 346 1
345 373 3
346 347 1
346 374 3
347 348 4
347 375 5
348 349 1
348 376 3
349 350 5
349 377 2
350 351 2
350 378 5
351 352 1
351 379 3
352 353 5
352 380 2
353 354 1
353 381 5
354 355 2
354 382 3
355 356 1
355 383 3
356 357 2
356 384 1
357 358 1
357 385 1
358 359 1
358 386 2
359 360 4
359 387 4
360 361 5
360 388 1
361 362 3
361 389 4
362 363 1
362 390 1
363 364 1
363 391 4
364 392 3
365 366 1
365 393 3
366 367 5
366 394 1
367 368 4
367 395 1
368 369 5
368 396 3
369 370 3
369 397 5
370 371 2
370 398 2
371 372 5
371 399 5
372 373 4
372 400 2
373 374 3
373 401 4
374 375 3
374 402 5
375 376 1
375 403 5
376 377 1
376 404 2
377 378 3
377 405 4
378 379 3
378 406 2
379 380 1
379 407 2
380 381 5
380 408 3
381 382 5
381 409 4
382 383 4
382 410 2
383 384 3
383 411 3
384 385 4
384 412 1
385 386 4
385 413 5
386 387 3
386 414 3
387 388 4
387 415 4
388 389 1
388 416 3
389 390 4
389 417 3
390 391 1
390 418 4
391 392 5
391 419 3
392 420 1
393 394 5
393 421 4
394 395 5
394 422 3
395 396 5
395 423 3
396 397 4
396 424 1
397 398 5
397 425 5
398 399 1
398 426 3
399 400 4
399 427 4
400 401 3
400 428 1
401 402 1
401 429 4
402 403 4
402 430 5
403 404 1
403 431 2
404 405 4
404 432 2
405 406 1
405 433 1
406 407 2
406 434 4
407 408 5
407 435 2
408 409 5
408 436 4
409 410 3
409 437 1
410 411 5
410 438 5
411 412 5
411 439 3
412 413 3
412 440 4
413 414 1
413 441 3
414 415 1
414 442 2
415 416 4
415 443 4
416 417 2
416 444 1
417 418 1
417 445 1
418 419 1
418 446 2
419 420 4
419 447 4
420 448 5
421 422 1
421 449 1
422 423 4
422 450 4
423 424 4
423 451 4
424 425 3
424 452 5
425 426 5
425 453 1
426 427 1
426 454 3
427 428 1
427 455 5
428 429 3
428 456 4
429 430 4
429 457 3
430 431 1
430 458 3
431 432 1
431 459 5
432 433 4
432 460 3
433 434 3
433 461 1
434 435 4
434 462 4
435 436 4
435 463 5
436 437 4
436 464 3
437 438 3
437 465 1
438 439 4
438 466 1
439 440 3
439 467 5
440 441 1
440 468 3
441 442 3
441 469 2
442 443 4
442 470 4
443 444 3
443 471 1
444 445 3
444 472 2
445 446 5
445 473 5
446 447 3
446 474 4
447 448 3
447 475 5
448 476 2
449 450 2
449 477 1
450 451 2
450 478 4
451 452 3
451 479 4
452 453 2
452 480 2
453 454 5
453 481 1
454 455 2
454 482 1
455 456 2
455 483 5
456 457 4
456 484 3
457 458 4
457 485 5
458 459 1
458 486 3
459 460 4
459 487 5
460 461 5
460 488 3
461 462 3
461 489 2
462 463 4
462 490 4
463 464 5
463 491 2
464 465 5
464 492 5
465 466 3
465 493 4
466 467 2
466 494 2
467 468 4
467 495 1
468 469 2
468 496 1
469 470 2
469 497 2
470 471 2
470 498 2
471 472 1
471 499 2
472 473 5
472 500 1
473 474 4
473 501 1
474 475 3
474 502 3
475 476 2
475 503 3
476 504 1
477 478 2
477 505 1
478 479 3
478 506 2
479 480 5
479 507 2
480 481 4
480 508 3
481 482 5
481 509 3
482 483 1
482 510 4
483 484 5
483 511 1
484 485 4
484 512 5
485 486 5
485 513 3
486 487 2
486 514 1
487 488 3
487 515 1
488 489 2
488 516 5
489 490 2
489 517 4
490 491 2
490 518 3
491 492 3
491 519 3
492 493 2
492 520 1
493 494 5
493 521 2
494 495 1
494 522 4
495 496 3
495 523 3
496 497 1
496 524 4
497 498 1
497 525 1
498 499 2
498 526 2
499 500 5
499 527 1
500 501 1
500 528 1
501 502 2
501 529 4
502 503 2
502 530 1
503 504 4
503 531 5
504 532 2
505 506 4
505 533 2
506 507 2
506 534 3
507 508 4
507 535 3
508 509 3
508 536 5
509 510 5
509 537 3
510 511 4
510 538 4
511 512 5
511 539 1
512 513 5
512 540 1
513 514 3
513 541 2
514 515 5
514 542 2
515 516 2
515 543 4
516 517 5
516 544 2
517 518 3
517 545 2
518 519 3
518 546 2
519 520 2
519 547 2
520 521 2
520 548 3
521 522 3
521 549 3
522 523 1
522 550 1
523 524 5
523 551 2
524 525 4
524 552 3
525 526 4
525 553 4
526 527 1
526 554 5
527 528 4
527 555 4
528 529 2
528 556 5
529 530 2
529 557 3
530 531 5
530 558 4
531 532 2
531 559 2
532 560 2
533 534 1
533 561 3
534 535 1
534 562 1
535 536 2
535 563 4
536 537 5
536 564 2
537 538 2
537 565 3
538 539 3
538 566 2
539 540 2
539 567 1
540 541 1
540 568 4
541 542 4
541 569 4
542 543 3
542 570 5
543 544 3
543 571 2
544 545 5
544 572 1
545 546 1
545 573 1
546 547 4
546 574 2
547 548 5
547 575 3
548 549 4
548 576 5
549 550 5
549 577 5
550 551 2
550 578 3
551 552 4
551 579 3
552 553 4
552 580 2
553 554 5
553 581 4
554 555 4
554 582 4
555 556 3
555 583 5
556 557 4
556 584 1
557 558 5
557 585 5
558 559 1
558 586 2
559 560 2
559 587 5
560 588 1
561 562 4
561 589 3
562 563 3
562 590 1
563 564 1
563 591 5
564 565 3
564 592 5
565 566 5
565 593 3
566 567 1
566 594 1
567 568 3
567 595 2
568 569 4
568 596 1
569 570 2
569 597 3
570 571 1
570 598 5
571 572 2
571 599 5
572 573 4
572 600 1
573 574 4
573 601 4
574 575 4
574 602 5
575 576 5
575 603 5
576 577 2
576 604 4
577 578 1
577 605 5
578 579 4
578 606 3
579 580 2
579 607 3
580 581 3
580 608 5
581 582 1
581 609 5
582 583 1
582 610 1
583 584 4
583 611 3
584 585 2
584 612 2
585 586 4
585 613 4
586 587 1
586 614 4
587 588 5
587 615 1
588 616 2
589 590 4
589 617 4
590 591 4
590 618 1
591 592 4
591 619 5
592 593 4
592 620 3
593 594 3
593 621 3
594 595 1
594 622 1
595 596 5
595 623 2
596 597 5
596 624 2
597 598 1
597 625 2
598 599 2
598 626 5
599 600 3
599 627 1
600 601 1
600 628 2
601 602 1
601 629 4
602 603 2
602 630 4
603 604 1
603 631 1
604 605 1
604 632 1
605 606 4
605 633 2
606 607 1
606 634 3
607 608 2
607 635 1
608 609 1
608 636 2
609 610 4
609 637 4
610 611 5
610 638 2
611 612 1
611 639 5
612 613 2
612 640 2
613 614 2
613 641 3
614 615 1
614 642 4
615 616 1
615 643 5
616 644 3
617 618 3
617 645 2
618 619 3
618 646 1
619 620 3
619 647 3
620 621 3
620 648 2
621 622 4
621 649 3
622 623 2
622 650 1
623 624 5
623 651 1
624 625 4
624 652 3
625 626 1
625 653 3
626 627 2
626 654 3
627 628 5
627 655 3
628 629 4
628 656 2
629 630 4
629 657 5
630 631 2
630 658 3
631 632 2
631 659 5
632 633 3
632 660 4
633 634 4
633 661 1
634 635 3
634 662 5
635 636 1
635 663 4
636 637 2
636 664 2
637 638 4
637 665 2
638 639 5
638 666 5
639 640 1
639 667 4
640 641 3
640 668 4
641 642 4
641 669 4
642 643 5
642 670 2
643 644 4
643 671 1
644 672 3
645 646 3
645 673 4
646 647 2
646 674 2
647 648 5
647 675 5
648 649 4
648 676 1
649 650 4
649 677 1
650 651 5
650 678 5
651 652 5
651 679 5
652 653 4
652 680 5
653 654 1
653 681 3
654 655 2
654 682 2
655 656 5
655 683 4
656 657 2
656 684 4
657 658 3
657 685 1
658 659 5
658 686 3
659 660 1
659 687 4
660 661 4
660 688 4
661 662 2
661 689 1
662 663 5
662 690 1
663 664 2
663 691 2
664 665 3
664 692 3
665 666 4
665 693 3
666 667 2
666 694 5
667 668 5
667 695 4
668 669 2
668 696 1
669 670 3
669 697 3
670 671 1
670 698 1
671 672 1
671 699 4
672 700 3
673 674 2
673 701 3
674 675 1
674 702 5
675 676 4
675 703 3
676 677 3
676 704 5
677 678 5
677 705 2
678 679 5
678 706 2
679 680 2
679 707 5
680 681 2
680 708 5
681 682 4
681 709 5
682 683 5
682 710 4
683 684 3
683 711 1
684 685 3
684 712 3
685 686 3
685 713 1
686 687 3
686 714 2
687 688 3
687 715 5
688 689 5
688 716 3
689 690 2
689 717 3
690 691 3
690 718 1
691 692 3
691 719 4
692 693 3
692 720 1
693 694 2
693 721 1
694 695 5
694 722 5
695 696 4
695 723 1
696 697 2
696 724 4
697 698 5
697 725 5
698 699 1
698 726 3
699 700 5
699 727 2
700 728 3
701 702 2
701 729 1
702 703 2
702 730 4
703 704 4
703 731 5
704 705 1
704 732 3
705 706 5
705 733 5
706 707 2
706 734 4
707 708 1
707 735 1
708 709 3
708 736 5
709 710 3
709 737 4
710 711 5
710 738 5
711 712 1
711 739 5
712 713 5
712 740 1
713 714 2
713 741 3
714 715 4
714 742 1
715 716 4
715 743 2
716 717 4
716 744 3
717 718 4
717 745 5
718 719 3
718 746 1
719 720 2
719 747 3
720 721 4
720 748 2
721 722 2
721 749 3
722 723 4
722 750 1
723 724 4
723 751 2
724 725 4
724 752 2
725 726 3
725 753 2
726 727 3
726 754 5
727 728 2
727 755 1
728 756 2
729 730 3
729 757 3
730 731 2
730 758 4
731 732 1
731 759 1
732 733 3
732 760 2
733 734 4
733 761 2
734 735 4
734 762 4
735 736 3
735 763 5
736 737 1
736 764 5
737 738 1
737 765 4
738 739 2
738 766 1
739 740 5
739 767 3
740 741 3
740 768 5
741 742 4
741 769 5
742 743 2
742 770 3
743 744 4
743 771 3
744 745 3
744 772 2
745 746 5
745 773 2
746 747 2
746 774 1
747 748 2
747 775 1
748 749 1
748 776 3
749 750 2
749 777 3
750 751 5
750 778 4
751 752 2
751 779 4
752 753 5
752 780 4
753 754 4
753 781 2
754 755 5
754 782 4
755 756 4
755 783 2
756 784 4
757 758 4
758 759 1
759 760 3
760 761 4
761 762 2
762 763 3
763 764 3
764 765 4
765 766 4
766 767 4
767 768 2
768 769 5
769 770 4
770 771 2
771 772 3
772 773 3
773 774 2
774 775 4
775 776 4
776 777 3
777 778 2
778 779 1
779 780 3
780 781 3
781 782 4
782 783 5
783 784 4
1 757 4
2 758 4
3 759 5
4 760 5
5 761 3
6 762 1
7 763 1
8 764 2
9 765 3
10 766 5
11 767 2
12 768 4
13 769 1
14 770 3
15 771 3
16 772 3
17 773 3
18 774 2
19 775 4
20 776 3
21 777 1
22 778 4
23 779 2
24 780 5
25 781 3
26 782 1
27 783 4
28 784 1
1 28 5
29 56 2
57 84 2
85 112 1
113 140 1
141 168 1
169 196 5
197 224 5
225 252 3
253 280 1
281 308 3
309 336 4
337 364 3
365 392 2
393 420 2
421 448 3
449 476 2
477 504 5
505 532 1
533 560 1
561 588 3
589 616 4
617 644 1
645 672 2
673 700 3
701 728 3
729 756 4
757 784 5
